Geographic Exponential Decay
40 243 316 135 183 21 71 92 1 0 110 124 277 10 37 293 296 285 134 120 260 75 213 27 318 261 222 83 162 141 188 210 3 219 154 35 228 24 106 133 311
p edge 320 1262
e 0 307 5.0
e 0 81 76.0
e 0 304 51.0
e 0 110 40.0
e 0 249 19.0
e 0 160 91.0
e 0 151 4.0
e 0 127 50.0
e 0 196 48.0
e 0 166 36.0
e 0 70 10.0
e 0 251 90.0
e 0 59 14.0
e 0 177 16.0
e 0 217 22.0
e 0 140 19.0
e 0 315 92.0
e 0 179 11.0
e 0 254 23.0
e 0 126 69.0
e 0 125 3.0
e 0 152 89.0
e 0 224 7.0
e 0 165 95.0
e 0 5 72.0
e 0 163 76.0
e 0 191 96.0
e 1 62 24.0
e 1 248 75.0
e 1 252 81.0
e 1 33 18.0
e 1 162 58.0
e 1 259 99.0
e 1 170 14.0
e 1 243 80.0
e 1 80 96.0
e 1 117 8.0
e 1 183 13.0
e 1 171 17.0
e 1 61 23.0
e 1 107 60.0
e 1 199 13.0
e 1 83 70.0
e 1 230 61.0
e 1 251 57.0
e 1 297 61.0
e 1 253 76.0
e 1 222 33.0
e 1 49 12.0
e 1 262 46.0
e 1 288 62.0
e 1 111 49.0
e 1 311 20.0
e 1 91 29.0
e 2 15 1.0
e 3 121 59.0
e 3 133 42.0
e 3 80 73.0
e 3 61 77.0
e 3 297 16.0
e 3 27 75.0
e 3 160 7.0
e 3 103 92.0
e 3 296 12.0
e 3 277 56.0
e 3 70 4.0
e 3 77 45.0
e 3 98 94.0
e 3 69 19.0
e 3 36 85.0
e 3 150 86.0
e 3 287 59.0
e 3 105 83.0
e 3 192 83.0
e 3 206 46.0
e 3 276 95.0
e 3 136 82.0
e 3 111 27.0
e 3 302 33.0
e 3 315 60.0
e 3 211 50.0
e 3 22 55.0
e 4 19 27.0
e 6 298 1.0
e 7 133 41.0
e 7 186 3.0
e 8 13 7.0
e 8 19 9.0
e 8 282 2.0
e 8 202 3.0
e 9 237 1.0
e 10 145 73.0
e 10 16 9.0
e 10 205 15.0
e 10 181 54.0
e 10 58 91.0
e 10 96 16.0
e 10 44 59.0
e 10 15 95.0
e 10 275 50.0
e 10 78 21.0
e 10 100 94.0
e 10 294 38.0
e 10 267 47.0
e 10 235 31.0
e 10 243 14.0
e 10 82 98.0
e 10 274 20.0
e 10 206 66.0
e 10 11 32.0
e 10 287 37.0
e 10 220 50.0
e 10 24 58.0
e 10 219 65.0
e 10 198 9.0
e 10 249 36.0
e 10 95 9.0
e 10 182 27.0
e 11 209 12.0
e 11 288 10.0
e 11 96 7.0
e 12 301 2.0
e 14 205 1.0
e 14 300 1.0
e 17 184 1.0
e 18 176 1.0
e 19 132 5.0
e 19 27 44.0
e 19 265 28.0
e 19 210 66.0
e 19 318 49.0
e 19 306 19.0
e 19 275 34.0
e 19 56 39.0
e 19 221 7.0
e 19 29 46.0
e 19 169 40.0
e 19 172 43.0
e 20 88 24.0
e 20 186 39.0
e 20 293 94.0
e 20 94 21.0
e 20 77 30.0
e 20 14 4.0
e 20 257 41.0
e 20 200 9.0
e 20 126 38.0
e 20 43 6.0
e 20 193 9.0
e 20 177 42.0
e 20 296 46.0
e 20 51 11.0
e 21 311 54.0
e 21 203 32.0
e 21 90 67.0
e 21 263 100.0
e 21 206 49.0
e 21 300 15.0
e 21 190 76.0
e 21 67 88.0
e 21 8 92.0
e 21 191 44.0
e 21 73 22.0
e 21 102 77.0
e 21 99 75.0
e 21 227 85.0
e 21 307 77.0
e 21 163 72.0
e 21 224 15.0
e 21 269 66.0
e 21 229 25.0
e 21 120 40.0
e 21 121 72.0
e 21 306 71.0
e 21 55 11.0
e 21 254 30.0
e 21 33 34.0
e 21 43 62.0
e 21 45 98.0
e 23 142 5.0
e 24 163 72.0
e 24 181 96.0
e 24 283 2.0
e 24 110 90.0
e 24 289 34.0
e 24 216 59.0
e 24 62 5.0
e 24 97 23.0
e 24 182 8.0
e 24 146 26.0
e 24 9 97.0
e 24 183 63.0
e 24 7 4.0
e 24 128 78.0
e 24 269 4.0
e 24 56 43.0
e 24 118 72.0
e 24 184 50.0
e 24 234 29.0
e 24 214 99.0
e 24 236 96.0
e 24 8 73.0
e 24 16 31.0
e 24 125 60.0
e 24 217 14.0
e 24 210 98.0
e 25 5 1.0
e 26 56 4.0
e 26 36 13.0
e 26 126 21.0
e 26 65 23.0
e 26 236 4.0
e 26 152 3.0
e 26 59 15.0
e 27 317 81.0
e 27 261 58.0
e 27 198 69.0
e 27 28 59.0
e 27 169 53.0
e 27 287 67.0
e 27 217 40.0
e 27 238 94.0
e 27 57 68.0
e 27 151 66.0
e 27 137 84.0
e 27 275 28.0
e 27 199 56.0
e 27 50 84.0
e 27 7 83.0
e 27 227 53.0
e 27 234 71.0
e 27 125 66.0
e 27 103 31.0
e 27 306 72.0
e 27 88 36.0
e 27 100 38.0
e 27 213 9.0
e 27 204 65.0
e 27 65 42.0
e 30 102 2.0
e 31 186 1.0
e 32 187 13.0
e 32 231 7.0
e 32 311 33.0
e 32 188 34.0
e 34 245 8.0
e 34 90 11.0
e 34 152 6.0
e 34 142 2.0
e 35 68 56.0
e 35 164 100.0
e 35 170 23.0
e 35 119 39.0
e 35 286 74.0
e 35 180 68.0
e 35 148 13.0
e 35 93 35.0
e 35 43 67.0
e 35 171 32.0
e 35 221 46.0
e 35 165 59.0
e 35 49 86.0
e 35 169 59.0
e 35 175 20.0
e 35 190 21.0
e 35 136 89.0
e 35 298 95.0
e 35 57 72.0
e 35 177 59.0
e 35 41 74.0
e 35 7 90.0
e 35 210 60.0
e 35 208 35.0
e 35 265 36.0
e 35 96 58.0
e 35 44 50.0
e 36 165 5.0
e 36 81 12.0
e 37 192 30.0
e 37 218 76.0
e 37 221 13.0
e 37 163 53.0
e 37 172 99.0
e 37 35 12.0
e 37 73 37.0
e 37 116 61.0
e 37 268 37.0
e 37 266 53.0
e 37 53 89.0
e 37 86 49.0
e 37 110 34.0
e 37 253 69.0
e 37 23 89.0
e 37 38 59.0
e 37 143 95.0
e 37 138 6.0
e 37 223 11.0
e 37 200 55.0
e 37 211 43.0
e 37 179 74.0
e 37 156 47.0
e 37 42 93.0
e 37 292 35.0
e 37 36 14.0
e 37 210 51.0
e 39 297 1.0
e 39 86 2.0
e 40 194 1.0
e 42 16 2.0
e 45 211 2.0
e 46 199 5.0
e 46 108 1.0
e 47 176 4.0
e 47 124 83.0
e 48 188 2.0
e 48 291 1.0
e 50 48 1.0
e 52 306 5.0
e 52 20 10.0
e 53 142 1.0
e 53 21 46.0
e 53 28 2.0
e 54 116 1.0
e 60 212 2.0
e 63 315 5.0
e 63 164 7.0
e 64 113 27.0
e 64 35 43.0
e 64 62 47.0
e 64 308 4.0
e 64 119 35.0
e 64 177 44.0
e 64 10 26.0
e 64 167 17.0
e 64 248 4.0
e 64 301 49.0
e 64 313 44.0
e 64 109 48.0
e 64 24 62.0
e 64 229 23.0
e 66 294 4.0
e 66 58 4.0
e 71 184 52.0
e 71 149 96.0
e 71 185 12.0
e 71 82 64.0
e 71 306 92.0
e 71 41 81.0
e 71 102 20.0
e 71 313 100.0
e 71 70 79.0
e 71 166 19.0
e 71 26 80.0
e 71 277 68.0
e 71 285 13.0
e 71 15 49.0
e 71 220 15.0
e 71 78 47.0
e 71 183 60.0
e 71 190 17.0
e 71 23 3.0
e 71 314 35.0
e 71 76 21.0
e 71 239 92.0
e 71 4 18.0
e 71 286 35.0
e 71 276 97.0
e 71 118 26.0
e 71 182 51.0
e 72 61 6.0
e 72 85 1.0
e 72 154 99.0
e 72 270 9.0
e 74 210 8.0
e 75 136 66.0
e 75 312 57.0
e 75 96 28.0
e 75 195 6.0
e 75 109 42.0
e 75 81 55.0
e 75 230 85.0
e 75 26 90.0
e 75 71 24.0
e 75 137 53.0
e 75 170 16.0
e 75 117 60.0
e 75 66 55.0
e 75 241 2.0
e 75 62 38.0
e 75 154 30.0
e 75 118 30.0
e 75 135 85.0
e 75 115 25.0
e 75 68 21.0
e 75 5 33.0
e 75 224 33.0
e 75 190 35.0
e 75 216 43.0
e 75 116 78.0
e 75 50 48.0
e 75 67 97.0
e 79 89 1.0
e 81 288 3.0
e 83 268 31.0
e 83 291 29.0
e 83 297 71.0
e 83 44 1.0
e 83 198 100.0
e 83 203 91.0
e 83 96 64.0
e 83 47 4.0
e 83 73 42.0
e 83 74 12.0
e 83 184 90.0
e 83 75 77.0
e 83 115 15.0
e 83 64 1.0
e 83 10 84.0
e 83 287 11.0
e 83 279 62.0
e 83 273 83.0
e 83 32 60.0
e 83 164 81.0
e 83 5 80.0
e 83 77 24.0
e 83 171 83.0
e 83 161 14.0
e 83 123 21.0
e 83 139 39.0
e 84 216 1.0
e 87 261 94.0
e 87 16 1.0
e 87 253 4.0
e 87 29 5.0
e 91 309 10.0
e 91 273 11.0
e 91 144 11.0
e 91 93 3.0
e 91 112 21.0
e 91 236 8.0
e 92 166 20.0
e 92 182 29.0
e 92 179 49.0
e 92 163 76.0
e 92 192 19.0
e 92 71 90.0
e 92 14 86.0
e 92 245 25.0
e 92 218 26.0
e 92 55 14.0
e 92 130 18.0
e 92 174 23.0
e 92 70 42.0
e 92 118 58.0
e 92 254 87.0
e 92 124 29.0
e 92 58 32.0
e 92 249 84.0
e 92 315 72.0
e 92 153 57.0
e 92 5 4.0
e 92 85 74.0
e 92 127 63.0
e 92 246 38.0
e 92 204 16.0
e 92 37 17.0
e 92 251 89.0
e 96 204 8.0
e 96 205 8.0
e 97 44 1.0
e 98 152 4.0
e 99 299 1.0
e 99 308 1.0
e 99 71 19.0
e 101 269 2.0
e 103 168 6.0
e 103 314 4.0
e 104 14 3.0
e 106 52 14.0
e 106 196 7.0
e 106 180 49.0
e 106 310 67.0
e 106 284 15.0
e 106 124 84.0
e 106 140 97.0
e 106 173 63.0
e 106 181 94.0
e 106 28 51.0
e 106 61 28.0
e 106 155 50.0
e 106 270 36.0
e 106 92 41.0
e 106 237 47.0
e 106 93 40.0
e 106 167 18.0
e 106 62 3.0
e 106 53 24.0
e 106 68 47.0
e 106 268 25.0
e 106 197 5.0
e 106 74 93.0
e 106 217 33.0
e 106 178 24.0
e 106 160 2.0
e 106 211 75.0
e 108 73 1.0
e 110 5 59.0
e 110 112 80.0
e 110 7 40.0
e 110 98 14.0
e 110 212 43.0
e 110 237 32.0
e 110 317 4.0
e 110 74 82.0
e 110 206 87.0
e 110 157 25.0
e 110 42 12.0
e 110 216 69.0
e 110 199 3.0
e 110 125 22.0
e 110 246 94.0
e 110 299 66.0
e 110 144 66.0
e 110 264 90.0
e 110 178 77.0
e 110 83 32.0
e 110 222 37.0
e 110 164 68.0
e 110 308 90.0
e 110 181 67.0
e 114 189 2.0
e 114 54 3.0
e 120 215 76.0
e 120 177 74.0
e 120 172 56.0
e 120 25 98.0
e 120 234 56.0
e 120 55 7.0
e 120 37 84.0
e 120 53 10.0
e 120 257 62.0
e 120 190 11.0
e 120 98 47.0
e 120 239 62.0
e 120 15 74.0
e 120 48 44.0
e 120 73 37.0
e 120 134 45.0
e 120 178 10.0
e 120 101 32.0
e 120 137 58.0
e 120 143 46.0
e 120 212 17.0
e 120 317 77.0
e 120 71 71.0
e 120 75 60.0
e 120 107 67.0
e 120 108 27.0
e 122 38 4.0
e 122 43 2.0
e 123 173 3.0
e 123 26 1.0
e 123 91 1.0
e 124 311 46.0
e 124 230 97.0
e 124 274 63.0
e 124 90 57.0
e 124 153 88.0
e 124 85 70.0
e 124 127 3.0
e 124 168 5.0
e 124 297 63.0
e 124 246 80.0
e 124 81 41.0
e 124 56 54.0
e 124 188 48.0
e 124 96 54.0
e 124 290 84.0
e 124 224 70.0
e 124 247 65.0
e 124 36 29.0
e 124 148 96.0
e 124 305 18.0
e 124 97 94.0
e 124 199 24.0
e 124 275 40.0
e 124 223 74.0
e 128 1 44.0
e 128 29 11.0
e 128 279 9.0
e 129 20 26.0
e 130 303 47.0
e 130 35 93.0
e 130 310 36.0
e 130 176 5.0
e 130 17 24.0
e 130 20 49.0
e 130 109 37.0
e 130 18 49.0
e 130 107 18.0
e 130 138 15.0
e 130 126 24.0
e 130 279 11.0
e 130 139 15.0
e 131 136 6.0
e 131 128 6.0
e 133 281 38.0
e 133 240 79.0
e 133 221 9.0
e 133 97 13.0
e 133 214 26.0
e 133 11 22.0
e 133 177 62.0
e 133 10 34.0
e 133 98 64.0
e 133 178 1.0
e 133 204 69.0
e 133 110 30.0
e 133 15 73.0
e 133 167 87.0
e 133 101 59.0
e 133 41 11.0
e 133 32 88.0
e 133 5 1.0
e 133 24 15.0
e 133 157 65.0
e 133 179 76.0
e 133 256 86.0
e 133 258 81.0
e 133 25 55.0
e 133 1 40.0
e 134 301 7.0
e 134 102 9.0
e 134 62 5.0
e 134 198 46.0
e 134 97 71.0
e 134 10 50.0
e 134 178 97.0
e 134 201 51.0
e 134 38 84.0
e 134 108 20.0
e 134 257 84.0
e 134 138 45.0
e 134 135 60.0
e 134 72 41.0
e 134 193 4.0
e 134 173 26.0
e 134 94 24.0
e 134 176 80.0
e 134 124 54.0
e 134 76 16.0
e 134 256 18.0
e 134 151 3.0
e 134 56 92.0
e 134 232 10.0
e 134 285 88.0
e 134 185 34.0
e 135 69 26.0
e 135 317 76.0
e 135 252 13.0
e 135 209 12.0
e 135 203 68.0
e 135 273 15.0
e 135 307 86.0
e 135 15 100.0
e 135 314 24.0
e 135 204 46.0
e 135 16 50.0
e 135 24 27.0
e 135 52 4.0
e 135 271 87.0
e 135 236 13.0
e 135 318 28.0
e 135 14 83.0
e 135 163 72.0
e 135 193 97.0
e 135 183 94.0
e 135 115 50.0
e 135 200 63.0
e 135 279 80.0
e 135 237 18.0
e 135 116 60.0
e 137 119 7.0
e 137 259 2.0
e 137 305 13.0
e 137 197 5.0
e 141 66 21.0
e 141 262 92.0
e 141 229 1.0
e 141 128 39.0
e 141 94 24.0
e 141 164 32.0
e 141 67 18.0
e 141 0 70.0
e 141 174 59.0
e 141 175 86.0
e 141 288 93.0
e 141 251 12.0
e 141 238 42.0
e 141 14 84.0
e 141 137 52.0
e 141 44 70.0
e 141 217 11.0
e 141 95 44.0
e 141 246 11.0
e 141 211 38.0
e 141 19 78.0
e 141 23 29.0
e 141 247 17.0
e 141 301 38.0
e 141 93 86.0
e 141 222 87.0
e 141 176 73.0
e 142 235 10.0
e 145 220 2.0
e 146 216 12.0
e 146 162 6.0
e 146 291 1.0
e 147 127 2.0
e 154 34 95.0
e 154 146 99.0
e 154 89 68.0
e 154 209 20.0
e 154 190 54.0
e 154 111 65.0
e 154 124 47.0
e 154 133 84.0
e 154 147 56.0
e 154 255 72.0
e 154 87 25.0
e 154 180 29.0
e 154 159 23.0
e 154 302 79.0
e 154 74 6.0
e 154 220 3.0
e 154 254 61.0
e 154 44 53.0
e 154 112 16.0
e 154 300 13.0
e 154 258 11.0
e 154 97 6.0
e 154 272 89.0
e 154 201 21.0
e 154 287 68.0
e 156 165 6.0
e 158 132 1.0
e 161 204 18.0
e 161 163 7.0
e 161 146 24.0
e 161 144 9.0
e 161 288 22.0
e 161 126 1.0
e 162 203 24.0
e 162 29 9.0
e 162 102 71.0
e 162 73 59.0
e 162 142 10.0
e 162 39 53.0
e 162 124 49.0
e 162 169 93.0
e 162 18 6.0
e 162 121 64.0
e 162 22 32.0
e 162 42 48.0
e 162 219 95.0
e 162 147 18.0
e 162 36 49.0
e 162 105 71.0
e 162 67 10.0
e 162 263 22.0
e 162 318 28.0
e 162 275 60.0
e 162 280 10.0
e 162 133 27.0
e 162 312 78.0
e 162 95 12.0
e 162 71 63.0
e 170 49 12.0
e 170 227 12.0
e 170 238 16.0
e 170 38 6.0
e 172 290 7.0
e 172 155 19.0
e 172 70 5.0
e 172 87 2.0
e 179 11 21.0
e 179 88 18.0
e 179 261 17.0
e 183 69 20.0
e 183 239 84.0
e 183 310 66.0
e 183 134 11.0
e 183 264 83.0
e 183 21 42.0
e 183 12 68.0
e 183 42 3.0
e 183 104 2.0
e 183 217 67.0
e 183 218 88.0
e 183 10 7.0
e 183 227 4.0
e 183 8 92.0
e 183 117 68.0
e 183 181 10.0
e 183 127 50.0
e 183 206 37.0
e 183 66 59.0
e 183 70 22.0
e 183 228 93.0
e 183 0 33.0
e 183 318 60.0
e 187 248 34.0
e 187 298 29.0
e 187 121 15.0
e 187 247 38.0
e 187 102 19.0
e 187 188 79.0
e 187 299 8.0
e 187 206 38.0
e 187 44 7.0
e 187 158 11.0
e 187 58 49.0
e 187 198 28.0
e 187 56 17.0
e 188 287 82.0
e 188 249 39.0
e 188 290 84.0
e 188 137 29.0
e 188 265 57.0
e 188 66 69.0
e 188 194 69.0
e 188 135 25.0
e 188 139 19.0
e 188 201 20.0
e 188 307 68.0
e 188 215 82.0
e 188 306 100.0
e 188 220 90.0
e 188 291 80.0
e 188 0 22.0
e 188 154 37.0
e 188 247 64.0
e 188 140 42.0
e 188 33 41.0
e 188 56 63.0
e 188 28 14.0
e 188 97 68.0
e 189 308 3.0
e 207 42 1.0
e 208 186 2.0
e 208 129 3.0
e 208 1 31.0
e 210 190 2.0
e 210 241 62.0
e 210 290 37.0
e 210 91 37.0
e 210 28 3.0
e 210 272 38.0
e 210 64 26.0
e 210 317 86.0
e 210 88 53.0
e 210 90 47.0
e 210 57 29.0
e 210 96 31.0
e 210 45 58.0
e 210 224 12.0
e 210 311 38.0
e 210 54 24.0
e 210 137 30.0
e 210 246 89.0
e 210 16 35.0
e 210 114 65.0
e 210 20 54.0
e 210 188 66.0
e 213 73 57.0
e 213 242 93.0
e 213 3 59.0
e 213 179 51.0
e 213 255 66.0
e 213 128 17.0
e 213 263 39.0
e 213 8 85.0
e 213 37 27.0
e 213 270 32.0
e 213 202 2.0
e 213 118 18.0
e 213 237 37.0
e 213 293 33.0
e 213 6 48.0
e 213 169 47.0
e 213 216 90.0
e 213 20 84.0
e 213 109 3.0
e 213 284 12.0
e 213 153 15.0
e 213 121 78.0
e 213 182 36.0
e 213 19 46.0
e 213 198 22.0
e 213 188 41.0
e 219 64 34.0
e 219 36 78.0
e 219 50 29.0
e 219 222 19.0
e 219 46 92.0
e 219 237 96.0
e 219 57 56.0
e 219 206 92.0
e 219 268 37.0
e 219 226 17.0
e 219 261 12.0
e 219 188 68.0
e 219 259 95.0
e 219 181 8.0
e 219 249 9.0
e 219 143 10.0
e 219 128 75.0
e 219 54 5.0
e 219 15 56.0
e 219 223 59.0
e 219 276 16.0
e 219 187 44.0
e 219 229 38.0
e 219 35 44.0
e 219 283 68.0
e 222 26 10.0
e 222 136 41.0
e 222 134 50.0
e 222 294 11.0
e 222 29 48.0
e 222 159 81.0
e 222 235 1.0
e 222 247 18.0
e 222 4 37.0
e 222 206 12.0
e 222 0 17.0
e 222 2 27.0
e 222 6 41.0
e 222 292 90.0
e 222 130 81.0
e 222 201 42.0
e 222 16 100.0
e 222 86 85.0
e 222 240 10.0
e 222 299 63.0
e 222 137 72.0
e 222 76 31.0
e 222 184 19.0
e 225 70 9.0
e 225 191 10.0
e 225 39 9.0
e 225 192 2.0
e 226 32 4.0
e 228 101 83.0
e 228 145 95.0
e 228 227 87.0
e 228 176 19.0
e 228 217 52.0
e 228 188 81.0
e 228 261 51.0
e 228 254 80.0
e 228 192 6.0
e 228 65 97.0
e 228 290 2.0
e 228 276 38.0
e 228 174 78.0
e 228 10 25.0
e 228 223 25.0
e 228 252 52.0
e 228 196 16.0
e 228 229 3.0
e 228 74 49.0
e 228 62 99.0
e 228 161 31.0
e 228 2 37.0
e 228 72 69.0
e 228 109 8.0
e 228 112 5.0
e 228 230 83.0
e 231 136 2.0
e 232 9 1.0
e 233 225 12.0
e 234 170 22.0
e 236 244 6.0
e 236 172 3.0
e 236 114 13.0
e 243 40 62.0
e 243 254 40.0
e 243 148 66.0
e 243 52 98.0
e 243 97 69.0
e 243 112 69.0
e 243 167 16.0
e 243 263 41.0
e 243 89 4.0
e 243 59 23.0
e 243 125 87.0
e 243 24 40.0
e 243 181 48.0
e 243 114 42.0
e 243 13 8.0
e 243 171 64.0
e 243 163 31.0
e 243 179 63.0
e 243 47 76.0
e 243 98 19.0
e 243 294 44.0
e 243 31 81.0
e 243 201 23.0
e 243 105 26.0
e 243 207 67.0
e 246 213 90.0
e 246 18 9.0
e 246 67 20.0
e 246 202 23.0
e 246 233 35.0
e 246 35 44.0
e 246 89 23.0
e 246 151 2.0
e 246 269 20.0
e 250 87 11.0
e 255 171 6.0
e 255 78 1.0
e 255 102 16.0
e 255 228 33.0
e 255 23 15.0
e 260 109 79.0
e 260 52 96.0
e 260 74 69.0
e 260 248 99.0
e 260 156 70.0
e 260 142 60.0
e 260 63 67.0
e 260 197 96.0
e 260 163 93.0
e 260 2 94.0
e 260 249 25.0
e 260 262 37.0
e 260 255 56.0
e 260 50 62.0
e 260 188 65.0
e 260 49 76.0
e 260 191 26.0
e 260 302 17.0
e 260 157 71.0
e 260 230 77.0
e 260 92 95.0
e 260 189 31.0
e 260 173 57.0
e 260 107 13.0
e 260 140 39.0
e 260 40 70.0
e 260 96 14.0
e 261 28 7.0
e 261 207 11.0
e 261 199 23.0
e 261 47 15.0
e 261 292 88.0
e 261 191 53.0
e 261 265 42.0
e 261 290 52.0
e 261 84 10.0
e 261 101 55.0
e 261 272 33.0
e 261 293 44.0
e 261 214 4.0
e 261 217 28.0
e 261 291 72.0
e 261 208 38.0
e 261 277 16.0
e 261 105 34.0
e 261 103 87.0
e 261 233 51.0
e 261 152 59.0
e 261 146 65.0
e 267 309 2.0
e 274 103 11.0
e 274 235 11.0
e 277 296 90.0
e 277 191 70.0
e 277 144 58.0
e 277 192 66.0
e 277 158 62.0
e 277 164 50.0
e 277 11 27.0
e 277 60 85.0
e 277 308 26.0
e 277 147 38.0
e 277 282 71.0
e 277 107 7.0
e 277 264 91.0
e 277 77 18.0
e 277 24 30.0
e 277 69 12.0
e 277 140 37.0
e 277 259 89.0
e 277 227 42.0
e 277 75 11.0
e 277 159 77.0
e 277 226 54.0
e 277 230 7.0
e 277 284 32.0
e 278 284 1.0
e 280 219 94.0
e 283 127 4.0
e 283 231 19.0
e 283 137 12.0
e 283 28 2.0
e 283 273 16.0
e 285 172 16.0
e 285 129 28.0
e 285 4 45.0
e 285 317 78.0
e 285 99 3.0
e 285 0 96.0
e 285 17 1.0
e 285 224 5.0
e 285 61 79.0
e 285 54 42.0
e 285 109 38.0
e 285 29 88.0
e 285 24 76.0
e 285 266 87.0
e 285 280 20.0
e 285 65 90.0
e 285 47 1.0
e 285 139 86.0
e 285 214 79.0
e 285 39 69.0
e 285 36 44.0
e 285 68 21.0
e 285 305 4.0
e 285 176 75.0
e 285 207 80.0
e 289 57 7.0
e 289 218 1.0
e 289 245 8.0
e 293 148 1.0
e 293 183 85.0
e 293 40 82.0
e 293 249 2.0
e 293 147 10.0
e 293 296 78.0
e 293 115 63.0
e 293 207 49.0
e 293 192 33.0
e 293 46 2.0
e 293 237 86.0
e 293 282 2.0
e 293 250 77.0
e 293 60 79.0
e 293 243 26.0
e 293 215 64.0
e 293 300 39.0
e 293 301 88.0
e 293 80 12.0
e 293 35 16.0
e 293 47 81.0
e 293 315 49.0
e 293 303 28.0
e 293 264 80.0
e 295 194 2.0
e 296 140 62.0
e 296 167 98.0
e 296 25 45.0
e 296 139 96.0
e 296 280 24.0
e 296 290 8.0
e 296 308 59.0
e 296 105 18.0
e 296 172 71.0
e 296 311 38.0
e 296 168 13.0
e 296 17 78.0
e 296 27 44.0
e 296 99 88.0
e 296 157 21.0
e 296 138 11.0
e 296 191 27.0
e 296 131 65.0
e 296 283 30.0
e 296 41 66.0
e 296 195 68.0
e 296 247 30.0
e 296 14 94.0
e 304 316 91.0
e 305 104 1.0
e 307 53 19.0
e 307 1 70.0
e 307 30 23.0
e 311 68 97.0
e 311 306 21.0
e 311 308 97.0
e 311 139 34.0
e 311 273 2.0
e 311 245 73.0
e 311 129 2.0
e 311 45 70.0
e 311 280 94.0
e 311 250 74.0
e 311 161 16.0
e 311 4 14.0
e 311 160 82.0
e 311 164 53.0
e 311 66 70.0
e 311 312 90.0
e 311 297 88.0
e 311 313 66.0
e 311 103 19.0
e 311 64 4.0
e 311 142 13.0
e 316 156 74.0
e 316 250 89.0
e 316 13 82.0
e 316 178 30.0
e 316 300 63.0
e 316 312 78.0
e 316 1 61.0
e 316 235 94.0
e 316 64 94.0
e 316 215 2.0
e 316 66 37.0
e 316 186 51.0
e 316 27 37.0
e 316 25 73.0
e 316 106 35.0
e 316 291 60.0
e 316 274 73.0
e 316 52 2.0
e 316 265 20.0
e 316 292 79.0
e 316 26 59.0
e 316 254 54.0
e 316 182 89.0
e 316 78 58.0
e 316 297 6.0
e 316 53 9.0
e 318 262 33.0
e 318 171 58.0
e 318 250 60.0
e 318 289 12.0
e 318 300 94.0
e 318 143 54.0
e 318 55 31.0
e 318 68 14.0
e 318 115 70.0
e 318 156 75.0
e 318 58 9.0
e 318 195 77.0
e 318 157 68.0
e 318 17 71.0
e 318 275 90.0
e 318 309 83.0
e 318 230 94.0
e 318 193 28.0
e 318 69 95.0
e 318 67 72.0
e 318 247 11.0
e 318 229 17.0
e 318 244 38.0
e 319 203 5.0
e 319 278 5.0
